\* antennalocation *\
Minimize
obj_func: 7437 x_(0,_0) + 6425 x_(0,_1) + 5904 x_(1,_0) + 4813 x_(1,_1)
Subject To
2_0_0: z_(0,_0,_0) + z_(0,_0,_1) + z_(0,_0,_2) + z_(0,_0,_3) + z_(0,_0,_4) = 1
3_0_0: - x_(0,_0) - x_(0,_1) - x_(1,_0) - x_(1,_1) - 4 z_(0,_0,_0)
 - 3 z_(0,_0,_1) - 2 z_(0,_0,_2) - z_(0,_0,_3) = -4
4_0_0_0: - 14 x_(0,_0) + 15 z_(0,_0,_0) <= 15
4_0_0_1: q_SE_(0,_0) - 14 x_(0,_0) + 15 z_(0,_0,_1) <= 15
4_0_0_2: 2 q_SE_(0,_0) - 14 x_(0,_0) + 15 z_(0,_0,_2) <= 15
4_0_0_3: 3 q_SE_(0,_0) - 14 x_(0,_0) + 15 z_(0,_0,_3) <= 15
4_0_0_4: 4 q_SE_(0,_0) - 14 x_(0,_0) + 15 z_(0,_0,_4) <= 15
5_0_0_0: - 14 x_(0,_1) + 15 z_(0,_0,_0) <= 15
5_0_0_1: q_SW_(0,_1) - 14 x_(0,_1) + 15 z_(0,_0,_1) <= 15
5_0_0_2: 2 q_SW_(0,_1) - 14 x_(0,_1) + 15 z_(0,_0,_2) <= 15
5_0_0_3: 3 q_SW_(0,_1) - 14 x_(0,_1) + 15 z_(0,_0,_3) <= 15
5_0_0_4: 4 q_SW_(0,_1) - 14 x_(0,_1) + 15 z_(0,_0,_4) <= 15
6_0_0_0: - 14 x_(1,_0) + 15 z_(0,_0,_0) <= 15
6_0_0_1: q_NE_(1,_0) - 14 x_(1,_0) + 15 z_(0,_0,_1) <= 15
6_0_0_2: 2 q_NE_(1,_0) - 14 x_(1,_0) + 15 z_(0,_0,_2) <= 15
6_0_0_3: 3 q_NE_(1,_0) - 14 x_(1,_0) + 15 z_(0,_0,_3) <= 15
6_0_0_4: 4 q_NE_(1,_0) - 14 x_(1,_0) + 15 z_(0,_0,_4) <= 15
7_0_0_0: - 14 x_(1,_1) + 15 z_(0,_0,_0) <= 15
7_0_0_1: q_NW_(1,_1) - 14 x_(1,_1) + 15 z_(0,_0,_1) <= 15
7_0_0_2: 2 q_NW_(1,_1) - 14 x_(1,_1) + 15 z_(0,_0,_2) <= 15
7_0_0_3: 3 q_NW_(1,_1) - 14 x_(1,_1) + 15 z_(0,_0,_3) <= 15
7_0_0_4: 4 q_NW_(1,_1) - 14 x_(1,_1) + 15 z_(0,_0,_4) <= 15
8_0_0: q_(0,_0) - q_NE_(0,_0) - q_NW_(0,_0) - q_SE_(0,_0) - q_SW_(0,_0) = 0
8_0_1: q_(0,_1) - q_NE_(0,_1) - q_NW_(0,_1) - q_SE_(0,_1) - q_SW_(0,_1) = 0
8_1_0: q_(1,_0) - q_NE_(1,_0) - q_NW_(1,_0) - q_SE_(1,_0) - q_SW_(1,_0) = 0
8_1_1: q_(1,_1) - q_NE_(1,_1) - q_NW_(1,_1) - q_SE_(1,_1) - q_SW_(1,_1) = 0
9_0_0: q_(0,_0) - 15 x_(0,_0) <= 0
9_0_1: q_(0,_1) - 15 x_(0,_1) <= 0
9_1_0: q_(1,_0) - 15 x_(1,_0) <= 0
9_1_1: q_(1,_1) - 15 x_(1,_1) <= 0
lina_0_0: q_NE_(1,_0) + q_NW_(1,_1) + q_SE_(0,_0) + q_SW_(0,_1) = 14
Binaries
x_(0,_0)
x_(0,_1)
x_(1,_0)
x_(1,_1)
z_(0,_0,_0)
z_(0,_0,_1)
z_(0,_0,_2)
z_(0,_0,_3)
z_(0,_0,_4)
End
